(set-logic ALL)
(set-option :produce-models true)
(declare-sort BoundSet 0)
(declare-sort UnboundSet 0)
(declare-fun IsVotingFor (BoundSet BoundSet) Bool)
(declare-fun IsCandidateFor (BoundSet BoundSet) Bool)
(assert (not (=> (exists ((a BoundSet)) (exists ((c BoundSet)) (exists ((b BoundSet)) (and (IsVotingFor c a) (IsCandidateFor a b))))) (exists ((a BoundSet)) (exists ((b BoundSet)) (exists ((d BoundSet)) (and (IsVotingFor d a) (IsCandidateFor a b))))))))
(check-sat)
(get-model)